NAME : portcgen-19-9
COMMENT : portcgen N=19, seed=9
TYPE : TSP
DIMENSION : 19
EDGE_WEIGHT_TYPE : EUC_2D
NODE_COORD_SECTION
1 -7118 274820
2 363402 142025
3 -261655 184452
4 69627 -86524
5 -45580 -131106
6 82877 -53101
7 -187617 157106
8 -131089 -43096
9 165236 6267
10 -130478 95354
11 50934 229284
12 -63565 333869
13 334517 -92400
14 -41595 29735
15 528575 24571
16 -255396 218461
17 -107292 606155
18 -115183 6151
19 -202563 298024
